Pt H C : CH4/Pt(110)-2x1 (1x3 supercell)
   1.00000000000000     
     8.0399999999999991    0.0000000000000000    0.0000000000000000
     0.0000000000000000    8.5277077811000002    0.0000000000000000
     0.0000000000000000    0.0000000000000000   31.3702770414999996
   Pt   H    C 
    51     4     1
Selective dynamics
Direct
  0.0000000000000000  0.0000000000000000  0.0000000000000000   F   F   F
  0.5000000000000000  0.0000000000000000  0.0000000000000000   F   F   F
  0.0000000000000000  0.3333334200662961  0.0000000000000000   F   F   F
  0.5000000000000000  0.3333334200662961  0.0000000000000000   F   F   F
  0.0000000000000000  0.6666668401325850  0.0000000000000000   F   F   F
  0.5000000000000000  0.6666668401325850  0.0000000000000000   F   F   F
  0.2500000000000000  0.4999995437754094  0.0453065810709887   F   F   F
  0.7500000000000000  0.4999995437754094  0.0453065810709887   F   F   F
  0.2500000000000000  0.1666661237091134  0.0453065810709887   F   F   F
  0.7500000000000000  0.1666661237091134  0.0453065810709887   F   F   F
  0.2500000000000000  0.8333329638416984  0.0453065810709887   F   F   F
  0.7500000000000000  0.8333329638416984  0.0453065810709887   F   F   F
  0.9999987562189077  0.9999979149027567  0.0901569978568730   T   T   T
  0.4999987562189077  0.9999979149027567  0.0910792083927134   T   T   T
  0.9999987562189077  0.3333287294740472  0.0901528538067637   T   T   T
  0.4999987562189077  0.3333299021221094  0.0910757018887765   T   T   T
  0.9999987562189077  0.6666715307248339  0.0901541288991012   T   T   T
  0.4999987562189077  0.6666703580767717  0.0910766582080313   T   T   T
  0.2466927860696515  0.1666602604688094  0.1367112567838191   T   T   T
  0.7533034825870644  0.1666602604688094  0.1367112567838191   T   T   T
  0.2466927860696515  0.5000018890715339  0.1367087065991370   T   T   T
  0.7533034825870644  0.5000007164234717  0.1367087065991370   T   T   T
  0.2466927860696515  0.8333364817858850  0.1367122131030740   T   T   T
  0.7533034825870644  0.8333353091378228  0.1367122131030740   T   T   T
  0.4999975124378082  0.3333310747701717  0.1803742438268685   T   T   T
  0.4999975124378082  0.9999990875508189  0.1803783878769778   T   T   T
  0.4999975124378082  0.6666668401325850  0.1803755189192131   T   T   T
  0.9999975124378082  0.6666727033728961  0.1820650162714301   T   T   T
  0.9999975124378082  0.3333275568259850  0.1820621473136654   T   T   T
  0.9999975124378082  0.9999955696066323  0.1820704354138840   T   T   T
  0.2403395522388081  0.8333317911936362  0.2276916455200819   T   T   T
  0.7596567164179078  0.8333317911936362  0.2276916455200819   T   T   T
  0.2403370646766163  0.4999983711273472  0.2276846325122079   T   T   T
  0.7596592039800996  0.4999995437754094  0.2276849512852905   T   T   T
  0.2403383084577086  0.1666661237091134  0.2276894141084824   T   T   T
  0.7596567164179078  0.1666661237091134  0.2276890953353998   T   T   T
  0.4999987562189077  0.3333299021221094  0.2672612673744865   T   T   T
  0.4999975124378082  0.9999979149027567  0.2672654114245958   T   T   T
  0.4999975124378082  0.6666691854287095  0.2672622236937414   T   T   T
  0.9999975124378082  0.6666703580767717  0.2791173947369572   T   T   T
  0.9999975124378082  0.3333287294740472  0.2791161196446126   T   T   T
  0.9999975124378082  0.9999967422546945  0.2791205824678116   T   T   T
  0.2462773631840776  0.1666649510610512  0.3185751272384110   T   T   T
  0.7537176616915389  0.1666649510610512  0.3185751272384110   T   T   T
  0.2462860696517382  0.4999983711273472  0.3185697080959571   T   T   T
  0.7537114427860701  0.4999995437754094  0.3185700268690468   T   T   T
  0.2462736318407934  0.8333329638416984  0.3185773586500034   T   T   T
  0.7537213930348230  0.8333329638416984  0.3185773586500034   T   T   T
  0.4999987562189077  0.9999990875508189  0.3549493676855207   T   T   T
  0.4999975124378082  0.3333334200662961  0.3549480925931761   T   T   T
  0.4999975124378082  0.6666656674845228  0.3549480925931761   T   T   T
  0.9175199004975099  0.8833733745773671  0.4252126936065537   T   T   T
  0.0735062189054716  0.0046589307490166  0.4007844745319744   T   T   T
  0.0353134328358209  0.0227915877266298  0.4465363816031598   T   T   T
  0.0963619402985074  0.8739124500158084  0.4388220729383079   T   T   T
  0.0102972636815934  0.9530357053289720  0.4243587005109717   T   T   T
 
  0.00000000E+00  0.00000000E+00  0.00000000E+00
  0.00000000E+00  0.00000000E+00  0.00000000E+00
  0.00000000E+00  0.00000000E+00  0.00000000E+00
  0.00000000E+00  0.00000000E+00  0.00000000E+00
  0.00000000E+00  0.00000000E+00  0.00000000E+00
  0.00000000E+00  0.00000000E+00  0.00000000E+00
  0.00000000E+00  0.00000000E+00  0.00000000E+00
  0.00000000E+00  0.00000000E+00  0.00000000E+00
  0.00000000E+00  0.00000000E+00  0.00000000E+00
  0.00000000E+00  0.00000000E+00  0.00000000E+00
  0.00000000E+00  0.00000000E+00  0.00000000E+00
  0.00000000E+00  0.00000000E+00  0.00000000E+00
  0.00000000E+00  0.00000000E+00  0.00000000E+00
  0.00000000E+00  0.00000000E+00  0.00000000E+00
  0.00000000E+00  0.00000000E+00  0.00000000E+00
  0.00000000E+00  0.00000000E+00  0.00000000E+00
  0.00000000E+00  0.00000000E+00  0.00000000E+00
  0.00000000E+00  0.00000000E+00  0.00000000E+00
  0.00000000E+00  0.00000000E+00  0.00000000E+00
  0.00000000E+00  0.00000000E+00  0.00000000E+00
  0.00000000E+00  0.00000000E+00  0.00000000E+00
  0.00000000E+00  0.00000000E+00  0.00000000E+00
  0.00000000E+00  0.00000000E+00  0.00000000E+00
  0.00000000E+00  0.00000000E+00  0.00000000E+00
  0.00000000E+00  0.00000000E+00  0.00000000E+00
  0.00000000E+00  0.00000000E+00  0.00000000E+00
  0.00000000E+00  0.00000000E+00  0.00000000E+00
  0.00000000E+00  0.00000000E+00  0.00000000E+00
  0.00000000E+00  0.00000000E+00  0.00000000E+00
  0.00000000E+00  0.00000000E+00  0.00000000E+00
  0.00000000E+00  0.00000000E+00  0.00000000E+00
  0.00000000E+00  0.00000000E+00  0.00000000E+00
  0.00000000E+00  0.00000000E+00  0.00000000E+00
  0.00000000E+00  0.00000000E+00  0.00000000E+00
  0.00000000E+00  0.00000000E+00  0.00000000E+00
  0.00000000E+00  0.00000000E+00  0.00000000E+00
  0.00000000E+00  0.00000000E+00  0.00000000E+00
  0.00000000E+00  0.00000000E+00  0.00000000E+00
  0.00000000E+00  0.00000000E+00  0.00000000E+00
  0.00000000E+00  0.00000000E+00  0.00000000E+00
  0.00000000E+00  0.00000000E+00  0.00000000E+00
  0.00000000E+00  0.00000000E+00  0.00000000E+00
  0.00000000E+00  0.00000000E+00  0.00000000E+00
  0.00000000E+00  0.00000000E+00  0.00000000E+00
  0.00000000E+00  0.00000000E+00  0.00000000E+00
  0.00000000E+00  0.00000000E+00  0.00000000E+00
  0.00000000E+00  0.00000000E+00  0.00000000E+00
  0.00000000E+00  0.00000000E+00  0.00000000E+00
  0.00000000E+00  0.00000000E+00  0.00000000E+00
  0.00000000E+00  0.00000000E+00  0.00000000E+00
  0.00000000E+00  0.00000000E+00  0.00000000E+00
  0.00000000E+00  0.00000000E+00  0.00000000E+00
  0.00000000E+00  0.00000000E+00  0.00000000E+00
  0.00000000E+00  0.00000000E+00  0.00000000E+00
  0.00000000E+00  0.00000000E+00  0.00000000E+00
  0.00000000E+00  0.00000000E+00  0.00000000E+00
