K-points
 0
Gammacentered
 3  3  1
 0.000000  0.000000  0.000000

