Pt H C : CH4/Pt(110)-2x1 (1x3 supercell)
1.0
+8.0400000000  +0.0000000000  +0.0000000000
+0.0000000000  +8.5277077811  +0.0000000000
+0.0000000000  +0.0000000000 +31.3702770415
Pt  H  C
51  4  1
Selective
Cartesian
0.000000000000  0.000000000000  0.000000000000    F F F
4.020000000000  0.000000000000  0.000000000000    F F F
0.000000000000  2.842570000000  0.000000000000    F F F
4.020000000000  2.842570000000  0.000000000000    F F F
0.000000000000  5.685140000000  0.000000000000    F F F
4.020000000000  5.685140000000  0.000000000000    F F F
2.010000000000  4.263850000000  1.421280000000    F F F
6.030000000000  4.263850000000  1.421280000000    F F F
2.010000000000  1.421280000000  1.421280000000    F F F
6.030000000000  1.421280000000  1.421280000000    F F F
2.010000000000  7.106420000000  1.421280000000    F F F
6.030000000000  7.106420000000  1.421280000000    F F F
8.039990000000  8.527690000000  2.828250000000    T T T
4.019990000000  8.527690000000  2.857180000000    T T T
8.039990000000  2.842530000000  2.828120000000    T T T
4.019990000000  2.842540000000  2.857070000000    T T T
8.039990000000  5.685180000000  2.828160000000    T T T
4.019990000000  5.685170000000  2.857100000000    T T T
1.983410000000  1.421230000000  4.288670000000    T T T
6.056560000000  1.421230000000  4.288670000000    T T T
1.983410000000  4.263870000000  4.288590000000    T T T
6.056560000000  4.263860000000  4.288590000000    T T T
1.983410000000  7.106450000000  4.288700000000    T T T
6.056560000000  7.106440000000  4.288700000000    T T T
4.019980000000  2.842550000000  5.658390000000    T T T
4.019980000000  8.527700000000  5.658520000000    T T T
4.019980000000  5.685140000000  5.658430000000    T T T
8.039980000000  5.685190000000  5.711430000000    T T T
8.039980000000  2.842520000000  5.711340000000    T T T
8.039980000000  8.527670000000  5.711600000000    T T T
1.932330000000  7.106410000000  7.142750000000    T T T
6.107640000000  7.106410000000  7.142750000000    T T T
1.932310000000  4.263840000000  7.142530000000    T T T
6.107660000000  4.263850000000  7.142540000000    T T T
1.932320000000  1.421280000000  7.142680000000    T T T
6.107640000000  1.421280000000  7.142670000000    T T T
4.019990000000  2.842540000000  8.384060000000    T T T
4.019980000000  8.527690000000  8.384190000000    T T T
4.019980000000  5.685160000000  8.384090000000    T T T
8.039980000000  5.685170000000  8.755990000000    T T T
8.039980000000  2.842530000000  8.755950000000    T T T
8.039980000000  8.527680000000  8.756090000000    T T T
1.980070000000  1.421270000000  9.993790000000    T T T
6.059890000000  1.421270000000  9.993790000000    T T T
1.980140000000  4.263840000000  9.993620000000    T T T
6.059840000000  4.263850000000  9.993630000000    T T T
1.980040000000  7.106420000000  9.993860000000    T T T
6.059920000000  7.106420000000  9.993860000000    T T T
4.019990000000  8.527700000000  11.13486000000    T T T
4.019980000000  2.842570000000  11.13482000000    T T T
4.019980000000  5.685130000000  11.13482000000    T T T
7.376860000000  7.533150000000  13.33904000000    T T T
0.590990000000  0.039730000000  12.57272000000    T T T
0.283920000000  0.194360000000  14.00797000000    T T T
0.774750000000  7.452470000000  13.76597000000    T T T
0.082790000000  8.127210000000  13.31225000000    T T T