Pt  H  C 
1.0
 +8.0400000000  +0.0000000000  +0.0000000000 
 +0.0000000000  +8.5277077811  +0.0000000000 
 +0.0000000000  +0.0000000000 +31.3702770415 
 51 4 1
Selective
Cartesian
0.00000    0.00000    0.00000  F F F
4.02000    0.00000    0.00000  F F F
0.00000    2.84257    0.00000  F F F
4.02000    2.84257    0.00000  F F F
0.00000    5.68514    0.00000  F F F
4.02000    5.68514    0.00000  F F F
2.01000    4.26385    1.42128  F F F
6.03000    4.26385    1.42128  F F F
2.01000    1.42128    1.42128  F F F
6.03000    1.42128    1.42128  F F F
2.01000    7.10642    1.42128  F F F
6.03000    7.10642    1.42128  F F F
0.00001   -0.00002    2.82825  T T T
4.01999   -0.00002    2.85718  T T T
0.00001    2.84253    2.82812  T T T
4.01999    2.84254    2.85707  T T T
0.00001    5.68518    2.82816  T T T
4.01999    5.68517    2.85710  T T T
1.98341    1.42123    4.28867  T T T
6.05656    1.42123    4.28867  T T T
1.98341    4.26387    4.28859  T T T
6.05656    4.26386    4.28859  T T T
1.98341    7.10645    4.28870  T T T
6.05656    7.10644    4.28870  T T T
4.01998    2.84255    5.65839  T T T
4.01998   -0.00001    5.65852  T T T
4.01998    5.68514    5.65843  T T T
0.00002    5.68519    5.71143  T T T
0.00002    2.84252    5.71134  T T T
0.00002   -0.00003    5.71160  T T T
1.93233    7.10641    7.14275  T T T
6.10764    7.10641    7.14275  T T T
1.93231    4.26384    7.14253  T T T
6.10766    4.26385    7.14254  T T T
1.93232    1.42128    7.14268  T T T
6.10764    1.42128    7.14267  T T T
4.01999    2.84254    8.38406  T T T
4.01998   -0.00002    8.38419  T T T
4.01998    5.68516    8.38409  T T T
0.00002    5.68517    8.75599  T T T
0.00002    2.84253    8.75595  T T T
0.00002   -0.00002    8.75609  T T T
1.98007    1.42127    9.99379  T T T
6.05989    1.42127    9.99379  T T T
1.98014    4.26384    9.99362  T T T
6.05984    4.26385    9.99363  T T T
1.98004    7.10642    9.99386  T T T
6.05992    7.10642    9.99386  T T T
4.01999   -0.00001   11.13486  T T T
4.01998    2.84257   11.13482  T T T
4.01998    5.68513   11.13482  T T T
4.70206    3.54514   20.82225  T T T
3.43844    2.28156   20.82226  T T T
4.70195    2.28156   22.08593  T T T
3.43813    3.54527   22.08577  T T T
4.07026    2.91328   21.45408  T T T